qbf_easy_train/easy_377_SAT.qdimacs
p cnf 37 108
a 16 33 29 0
e 1 2 3 4 5 6 7 8 9 10 11 12 13 14 15 17 18 19 20 21 22 23 24 25 26 27 28 30 31 32 34 35 36 37 0
-4 2 0
-4 3 0
-2 -3 4 0
5 1 0
5 4 0
-1 -4 -5 0
-6 -5 0
-6 5 0
9 -7 0
9 8 0
7 -8 -9 0
-10 -7 -11 0
10 7 -11 0
-10 7 11 0
10 -7 11 0
9 11 -12 0
-9 -11 -12 0
9 -11 12 0
-9 11 12 0
6 -12 -13 0
-6 12 -13 0
6 12 13 0
-6 -12 13 0
9 -4 -14 0
-9 4 -14 0
9 4 14 0
-9 -4 14 0
-12 3 -15 0
12 -3 -15 0
-12 -3 15 0
12 3 15 0
16 5 0
16 -3 0
-5 3 -16 0
-15 -16 -17 0
15 16 -17 0
-15 16 17 0
15 -16 17 0
18 -14 0
18 -17 0
14 17 -18 0
13 18 -19 0
-13 -18 -19 0
13 -18 19 0
-13 18 19 0
-20 -11 0
-20 -11 0
11 20 0
22 -21 0
22 9 0
21 -9 -22 0
23 12 0
23 -6 0
-12 6 -23 0
-12 -23 -24 0
12 23 -24 0
-12 23 24 0
12 -23 24 0
25 -22 0
25 24 0
22 -24 -25 0
26 3 0
26 -5 0
-3 5 -26 0
-27 -5 0
-27 -26 0
5 26 27 0
-28 -25 0
-28 -27 0
25 27 28 0
-11 -29 -30 0
11 29 -30 0
-11 29 30 0
11 -29 30 0
31 28 0
31 30 0
-28 -30 -31 0
20 31 -32 0
-20 -31 -32 0
20 -31 32 0
-20 31 32 0
-33 -2 0
-33 5 0
2 -5 33 0
34 32 0
34 -33 0
-32 33 -34 0
-35 -1 0
-35 -6 0
1 6 35 0
-34 -35 -36 0
34 35 -36 0
-34 35 36 0
34 -35 36 0
37 19 0
37 -36 0
-19 36 -37 0
20 18 17 0
36 2 6 -10 29 -18 -37 0
-12 34 24 0
26 -3 -25 0
24 37 -16 0
-28 32 1 0
30 17 9 -26 -31 -8 0
7 -21 -28 -12 -13 35 -4 0
-21 -19 -15 -30 -36 28 18 0
36 4 34 23 21 5 6 -1 0
37 0
