sat_easy_train/easy_377_SAT.dimacs
p cnf 103 331
4 -2 0
4 -3 0
2 3 -4 0
-5 4 0
-5 -1 0
-4 1 5 0
6 -1 0
6 -5 0
1 5 -6 0
-8 7 0
-8 2 0
-7 -2 8 0
-6 8 -9 0
6 -8 -9 0
-6 -8 9 0
6 8 9 0
10 -11 -12 0
-10 11 -12 0
10 11 12 0
-10 -11 12 0
14 12 0
14 -13 0
-12 13 -14 0
-16 15 0
-16 1 0
-15 -1 16 0
-17 14 0
-17 16 0
-14 -16 17 0
-15 18 -19 0
15 -18 -19 0
-15 -18 19 0
15 18 19 0
-20 -21 -22 0
20 21 -22 0
-20 21 22 0
20 -21 22 0
-24 22 0
-24 23 0
-22 -23 24 0
19 -24 -25 0
-19 24 -25 0
19 24 25 0
-19 -24 25 0
-26 17 0
-26 25 0
-17 -25 26 0
27 20 -28 0
-27 -20 -28 0
27 -20 28 0
-27 20 28 0
28 18 -29 0
-28 -18 -29 0
28 -18 29 0
-28 18 29 0
30 29 0
30 28 0
-29 -28 -30 0
-31 5 0
-31 -29 0
-5 29 31 0
-33 -31 0
-33 -32 0
31 32 33 0
30 -33 -34 0
-30 33 -34 0
30 33 34 0
-30 -33 34 0
14 31 -35 0
-14 -31 -35 0
14 -31 35 0
-14 31 35 0
37 13 0
37 36 0
-13 -36 -37 0
38 -35 0
38 37 0
35 -37 -38 0
39 38 0
39 22 0
-38 -22 -39 0
14 39 -40 0
-14 -39 -40 0
14 -39 40 0
-14 39 40 0
-41 -28 0
-41 27 0
28 -27 41 0
-42 13 0
-42 14 0
-13 -14 42 0
43 4 0
43 42 0
-4 -42 -43 0
29 43 -44 0
-29 -43 -44 0
29 -43 44 0
-29 43 44 0
45 -41 0
45 44 0
41 -44 -45 0
46 -40 0
46 -45 0
40 45 -46 0
-47 -34 0
-47 46 0
34 -46 47 0
-26 47 -48 0
26 -47 -48 0
-26 -47 48 0
26 47 48 0
-49 -9 0
-49 -48 0
9 48 49 0
-50 -22 0
-50 -28 0
22 28 50 0
-51 -20 0
-51 50 0
20 -50 51 0
-52 -1 0
-52 -35 0
1 35 52 0
53 51 0
53 52 0
-51 -52 -53 0
54 3 0
54 -3 0
24 -54 -55 0
-24 54 -55 0
24 54 55 0
-24 -54 55 0
56 22 0
56 -10 0
-22 10 -56 0
57 -56 0
57 13 0
56 -13 -57 0
58 -57 0
58 -1 0
57 1 -58 0
59 -55 0
59 58 0
55 -58 -59 0
-60 -37 0
-60 -43 0
37 43 60 0
-61 59 0
-61 -60 0
-59 60 61 0
62 -11 0
62 36 0
11 -36 -62 0
-61 62 -63 0
61 -62 -63 0
-61 -62 63 0
61 62 63 0
53 63 -64 0
-53 -63 -64 0
53 -63 64 0
-53 63 64 0
-65 49 0
-65 -64 0
-49 64 65 0
-66 2 0
-66 -36 0
-2 36 66 0
67 -18 0
67 21 0
18 -21 -67 0
68 -67 0
68 24 0
67 -24 -68 0
-69 50 0
-69 -68 0
-50 68 69 0
24 -29 -70 0
-24 29 -70 0
24 29 70 0
-24 -29 70 0
71 -69 0
71 -70 0
69 70 -71 0
66 -71 -72 0
-66 71 -72 0
66 71 72 0
-66 -71 72 0
-73 39 0
-73 -19 0
-39 19 73 0
-74 50 0
-74 -67 0
-50 67 74 0
-35 10 -75 0
35 -10 -75 0
-35 -10 75 0
35 10 75 0
76 74 0
76 75 0
-74 -75 -76 0
-35 -76 -77 0
35 76 -77 0
-35 76 77 0
35 -76 77 0
-73 77 -78 0
73 -77 -78 0
-73 -77 78 0
73 77 78 0
-79 -72 0
-79 -78 0
72 78 79 0
65 -79 -80 0
-65 79 -80 0
65 79 80 0
-65 -79 80 0
-82 3 0
-82 -81 0
-3 81 82 0
-83 -75 0
-83 -42 0
75 42 83 0
84 36 0
84 -83 0
-36 83 -84 0
20 -76 -85 0
-20 76 -85 0
20 76 85 0
-20 -76 85 0
-86 -84 0
-86 85 0
84 -85 86 0
87 86 0
87 15 0
-86 -15 -87 0
88 -82 0
88 -87 0
82 87 -88 0
-89 -13 0
-89 37 0
13 -37 89 0
18 -32 -90 0
-18 32 -90 0
18 32 90 0
-18 -32 90 0
-91 67 0
-91 11 0
-67 -11 91 0
-42 -91 -92 0
42 91 -92 0
-42 91 92 0
42 -91 92 0
-93 -92 0
-93 -5 0
92 5 93 0
-94 90 0
-94 -93 0
-90 93 94 0
95 5 0
95 -37 0
-5 37 -95 0
-96 5 0
-96 -39 0
-5 39 96 0
4 -50 -97 0
-4 50 -97 0
4 50 97 0
-4 -50 97 0
-98 96 0
-98 97 0
-96 -97 98 0
-99 -95 0
-99 98 0
95 -98 99 0
-94 -99 -100 0
94 99 -100 0
-94 99 100 0
94 -99 100 0
-101 89 0
-101 -100 0
-89 100 101 0
102 88 0
102 101 0
-88 -101 -102 0
-80 -102 -103 0
80 102 -103 0
-80 102 103 0
80 -102 103 0
-8 -81 89 -5 25 46 0
-50 -69 -54 7 -95 0
91 12 56 3 7 -51 0
66 -78 -4 0
78 73 24 74 -10 0
-98 69 -101 84 -74 0
-84 97 45 0
86 -48 0
-40 -76 60 -5 -29 0
89 92 78 -68 60 0
-2 61 69 0
60 94 51 12 -48 0
-99 51 67 0
-7 -18 20 -53 -36 -10 0
-65 -2 -31 -45 87 83 0
-32 3 -7 50 53 0
-46 -54 71 0
57 22 69 -98 -101 -93 0
-86 7 21 -53 -70 -68 0
-85 8 -17 -94 30 0
46 -29 -64 54 -83 0
-17 21 -72 0
35 -74 81 0
-21 -22 38 65 -47 0
1 48 61 75 0
48 -35 -21 0
8 11 -34 48 -68 0
32 -19 37 -33 85 0
-41 17 82 -65 61 87 0
-70 -43 0
-64 -34 8 0
-28 1 -83 35 100 0
78 27 0
72 31 -83 -63 0
-94 30 97 -2 0
-16 -79 0
-101 17 -71 0
8 22 -14 0
-75 2 94 55 0
69 -68 -65 0
-20 94 -32 37 0
61 50 -57 54 29 0
-24 83 43 -64 -93 0
103 0
